100
32
10
10
13
31
16
8
6
13
3
14
6
25
2
10
10
24
2
13
1
18
16
1
2
1
18
3
5
2
1
24
17
1
6
3
3
17
1
5
3
1
4
1
2
2
1
20
1
4
3
4
2
17
1
3
5
17
2
3
3
2
3
4
6
2
2
2
17
2
2
2
2
2
1
2
2
3
1
1
1
1
2
10
1
1
2
18
2
4
3
2
1
1
3
18
1
1
2
2
1
1